26 26
22
3 3 0 23
3 4 7 0
3 5 3 21
3 6 0 17
3 7 17 0
3 8 7 4
3 9 7 12
3 10 23 16
3 11 20 15
3 12 10 14
3 14 14 0
3 15 20 0
3 16 23 0
3 17 0 0
3 19 17 7
4 3 10 0
4 4 13 14
4 5 6 21
4 7 3 14
4 8 13 18
4 11 10 3
4 14 3 0
